500

H	7.17037037037037	28.5502645502646	42.0248677248677
H	6.70476190476191	28.8798941798942	42.5566137566138
H	6.41005291005291	28.4089947089947	43.1407407407407
H	5.98518518518519	28.6634920634921	43.5740740740741
H	6.63597883597884	27.7322751322751	43.1507936507937
H	6.36296296296296	27.2047619047619	43.6513227513228
H	6.14232804232804	26.5185185185185	43.3047619047619
H	6.88148148148148	27.0407407407407	44.2619047619048
H	7.40793650793651	26.6619047619048	44.1952380952381
H	5.58994708994709	26.6534391534392	42.7269841269841
H	5.80476190476191	26.0338624338624	43.8597883597884
H	5.28412698412699	25.9671957671958	42.3984126984127
H	6.6962962962963	27.3243386243386	44.8698412698413
H	7.10740740740741	27.247619047619	45.5005291005291
H	7.16719576719577	27.9740740740741	45.8650793650794
H	6.76031746031746	26.7021164021164	45.9962962962963
H	6.18677248677249	26.4148148148148	45.837037037037
H	7.55978835978836	28.494708994709	45.378835978836
H	6.47195767195767	28.242328042328	46.0121693121693
H	7.11693121693122	26.5555555555556	46.5862433862434
H	6.82380952380952	26.1216931216931	47.162962962963
H	7.35767195767196	26.0608465608466	47.7693121693122
H	6.15291005291005	26.4507936507936	47.4624338624339
H	5.62804232804233	26.0936507936508	47.6068783068783
H	7.95820105820106	25.6756613756614	47.5449735449736
H	6.18677248677249	27.1417989417989	47.5724867724868
H	5.55873015873016	27.5603174603175	47.7677248677249
H	5.75608465608466	28.3534391534392	47.8068783068783
H	4.92169312169312	27.4354497354497	47.2746031746032
H	4.34656084656085	27.3	47.5243386243386
H	5.14021164021164	28.8656084656085	47.9386243386244
H	4.91269841269841	29.026455026455	48.6275132275132
H	4.79417989417989	29.1915343915344	47.3719576719577
H	4.35555555555556	29.4968253968254	48.7423280423281
H	4.23809523809524	29.6571428571429	47.4804232804233
H	4.01798941798942	29.8068783068783	48.1613756613757
H	3.46825396825397	30.2751322751323	48.2502645502646
H	5.02380952380952	27.4518518518519	46.578835978836
H	4.44285714285714	27.3121693121693	46.0883597883598
H	4.65291005291005	27.4571428571429	45.3026455026455
H	4.18730158730159	26.5534391534392	46.157671957672
H	3.54708994708995	26.4243386243386	46.173544973545
H	4.06507936507937	27.2253968253968	44.8089947089947
H	4.82433862433862	28.2306878306878	45.1867724867725
H	4.68148148148148	26.0518518518519	46.184126984127
H	4.49259259259259	25.3126984126984	46.2174603174603
H	5.16084656084656	24.8529100529101	46.1492063492064
H	4.03492063492064	25.1497354497355	46.8798941798942
H	3.4984126984127	24.7825396825397	46.8185185185185
H	5.3968253968254	24.7640211640212	45.3719576719577
H	6.04920634920635	24.2804232804233	45.2814814814815
H	6.694708994709	24.678835978836	45.4206349206349
H	7.2005291005291	24.8169312169312	44.9492063492064
H	7.16719576719577	24.568253968254	44.2878306878307
H	7.74814814814815	25.2137566137566	45.14708994709
H	4.23015873015873	25.4375661375661	47.489417989418
H	3.83015873015873	25.337037037037	48.1529100529101
H	4.23809523809524	25.5915343915344	48.8142857142857
H	3.11058201058201	25.7169312169312	48.1714285714286
H	2.57619047619048	25.4042328042328	48.3428571428571
H	4.85978835978836	25.1539682539683	48.9148148148148
H	4.46719576719577	26.3116402116402	48.7275132275132
H	3.1042328042328	26.3925925925926	47.9910052910053
H	2.44074074074074	26.7835978835979	47.9216931216931
H	2.56878306878307	27.5634920634921	47.6814814814815
H	1.8989417989418	26.4084656084656	47.44708994709
H	1.27936507936508	26.3433862433862	47.6661375661376
H	1.88253968253968	27.9428571428571	47.431746031746
H	2.9031746031746	27.9756613756614	48.2777777777778
H	2.11587301587302	26.1529100529101	46.8222222222222
H	1.6047619047619	25.8195767195767	46.3312169312169
H	1.9026455026455	25.7396825396825	45.5883597883598
H	1.34920634920635	25.1164021164021	46.5941798941799
H	0.724338624338624	24.9603174603175	46.5428571428572
H	2.09047619047619	26.4285714285714	45.1994708994709
H	2.10740740740741	26.2962962962963	44.4121693121693
H	1.60952380952381	27.0502645502645	45.3830687830688
H	1.82962962962963	24.6915343915344	46.8793650793651
H	1.63015873015873	24.0201058201058	47.2005291005291
H	2.29153439153439	23.631746031746	47.4465608465609
H	1.11798941798942	24.1153439153439	47.8132275132275
H	0.574603174603175	23.7767195767196	47.8280423280423
H	2.16984126984127	22.7153439153439	47.4243386243386
H	1.28888888888889	24.5867724867725	48.3074074074074
H	0.803703703703704	24.7968253968254	48.8825396825397
H	1.09365079365079	25.4312169312169	49.3047619047619
H	0.0698412698412698	24.9846560846561	48.621164021164
H	-0.452910052910053	24.7835978835979	48.9529100529101
H	1.5952380952381	25.215873015873	49.9021164021164
H	1.94021164021164	25.8396825396825	50.3015873015873
H	2.06507936507937	26.4169312169312	49.9857142857143
H	2.1047619047619	25.7349206349206	50.9375661375661
H	0.0264550264550265	25.3650793650794	48.0253968253968
H	-0.658201058201058	25.557671957672	47.715873015873
H	-1.02539682539683	24.9878306878307	47.2777777777778
H	-1.60740740740741	25.1095238095238	47.0185185185185
H	-0.694708994708995	24.3714285714286	47.1862433862434
H	-0.998412698412698	23.8010582010582	46.7587301587302
H	-1.01269841269841	23.9677248677249	45.9751322751323
H	-1.49417989417989	23.7296296296296	45.6005291005291
H	-0.497883597883598	24.3825396825397	45.7227513227513
H	-0.450793650793651	24.5550264550265	44.9687830687831
H	0.0111111111111111	25.2121693121693	44.8042328042328
H	-0.134391534391534	23.9227513227513	44.5867724867725
H	0.42010582010582	23.6492063492064	44.8142857142857
H	0.0396825396825397	25.3396825396825	43.9904761904762
H	-0.274074074074074	25.8724867724868	45.1613756613757
H	-0.474603174603175	23.6867724867725	44.0021164021164
H	-0.220634920634921	23.0634920634921	43.6201058201058
H	-0.693121693121693	23.0465608465608	42.9608465608466
H	0.53968253968254	23.1455026455026	43.4031746031746
H	0.743915343915344	23.7190476190476	43.1687830687831
H	-1.37037037037037	23.3830687830688	43.2142857142857
H	-1.12857142857143	23.9698412698413	43.7
H	0.956084656084656	22.584126984127	43.4804232804233
H	1.65978835978836	22.5582010582011	43.1597883597884
H	2.01957671957672	21.8640211640212	43.3772486772487
H	1.62275132275132	22.6380952380952	42.3428571428572
H	1.06455026455026	22.5195767195767	42.0174603174603
H	2.33333333333333	21.8587301587302	44.1539682539683
H	1.86825396825397	21.5121693121693	44.757671957672
H	1.24126984126984	21.289417989418	44.6640211640212
H	2.1962962962963	21.4666666666667	45.3920634920635
H	2.20952380952381	22.8619047619048	42.0116402116402
H	2.25502645502645	22.873544973545	41.2375661375661
H	2.98888888888889	23.0814814814815	40.9989417989418
H	2.07777777777778	22.1566137566138	40.9058201058201
H	2.20793650793651	21.6021164021164	41.2280423280423
H	3.11798941798942	23.8518518518519	40.9962962962963
H	3.82962962962963	23.9931216931217	40.7402116402116
H	3.95343915343915	24.7550264550265	40.6756613756614
H	4.56296296296296	25.031746031746	40.4714285714286
H	5.11851851851852	24.6174603174603	40.3296296296296
H	4.62486772486773	25.7248677248677	40.4216931216931
H	1.77301587301587	22.1624338624339	40.2582010582011
H	1.65820105820106	21.4984126984127	39.8820105820106
H	1.33809523809524	21.7343915343915	39.1687830687831
H	2.35079365079365	21.0878306878307	39.7703703703704
H	2.93439153439153	21.3984126984127	39.7994708994709
H	1.32010582010582	22.5201058201058	39.1666666666667
H	1.52539682539683	22.7899470899471	39.8619047619048
H	2.27619047619048	20.3952380952381	39.6402116402116
H	2.89100529100529	19.9206349206349	39.537037037037
H	2.67883597883598	19.1238095238095	39.3476190476191
H	3.42486772486772	20.2455026455026	39.0148148148148
H	4.05608465608466	20.2566137566138	39.1592592592593
H	2.25185185185185	18.7915343915344	39.9439153439153
H	2.27566137566138	19.0550264550265	38.6518518518519
H	3.16349206349206	20.5222222222222	38.4227513227513
H	3.58571428571429	20.921164021164	37.910582010582
H	3.57989417989418	20.5534391534392	37.1772486772487
H	3.23968253968254	21.6486772486772	37.8650793650794
H	2.59206349206349	21.6994708994709	37.8354497354497
H	3.81375661375661	21.0481481481481	36.5941798941799
H	4.02751322751323	19.8952380952381	37.1888888888889
H	3.67301587301587	22.2047619047619	37.8492063492063
H	3.41904761904762	22.9269841269841	37.9164021164021
H	3.53333333333333	23.205291005291	38.6809523809524
H	3.81005291005291	23.4100529100529	37.4095238095238
H	4.44232804232804	23.4222222222222	37.4095238095238
H	3.37830687830688	23.9867724867725	38.7555555555556
H	2.69365079365079	24.2269841269841	38.7925925925926
H	3.92063492063492	24.4767195767196	38.7502645502646
H	2.54603174603175	24.9486772486773	38.8328042328042
H	3.78253968253968	25.1851851851852	38.7888888888889
H	3.09365079365079	25.4248677248677	38.8343915343915
H	3.42116402116402	23.826455026455	36.9931216931217
H	3.73968253968254	24.3708994708995	36.5613756613757
H	3.58571428571429	24.2402116402116	35.7455026455026
H	3.50634920634921	25.1074074074074	36.8021164021164
H	2.90793650793651	25.2142857142857	37.0042328042328
H	3.84814814814815	23.5132275132275	35.5391534391534
H	2.8042328042328	24.3126984126984	35.5698412698413
H	3.97619047619048	25.6259259259259	36.7539682539683
H	3.8047619047619	26.3391534391534	36.9687830687831
H	4.45608465608466	26.8179894179894	37.0031746031746
H	3.27566137566138	26.6772486772487	36.4603174603175
H	3.25238095238095	26.5005291005291	35.8291005291005
H	4.9989417989418	26.537037037037	37.5047619047619
H	4.75238095238095	26.9063492063492	36.3074074074074
H	2.86084656084656	27.1714285714286	36.7396825396825
H	2.34021164021164	27.5619047619048	36.3396825396825
H	1.59470899470899	27.2428571428571	36.4502645502646
H	2.4005291005291	28.3058201058201	36.6216931216931
H	1.92645502645503	28.5777777777778	36.968253968254
H	1.54867724867725	26.4857142857143	36.1560846560846
H	0.839153439153439	26.184126984127	36.2153439153439
H	0.376190476190476	26.5047619047619	35.689417989418
H	-0.313756613756614	26.3851851851852	35.6328042328042
H	-0.625925925925926	25.9338624338624	36.0693121693122
H	-0.686772486772487	26.7137566137566	35.115873015873
H	3.00529100529101	28.626455026455	36.4608465608466
H	3.25343915343915	29.2656084656085	36.8190476190476
H	3.97037037037037	29.4851851851852	36.5306878306878
H	2.75873015873016	29.8931216931217	36.7455026455026
H	2.62116402116402	30.2640211640212	37.2597883597884
H	4.3973544973545	29.9227513227513	37.0608465608466
H	4.97195767195767	30.3582010582011	36.7005291005291
H	5.67407407407407	30.2809523809524	37.0809523809524
H	6.18253968253968	30.8333333333333	36.84708994709
H	2.49470899470899	30.0153439153439	36.1089947089947
H	2.04074074074074	30.6222222222222	35.9740740740741
H	1.8957671957672	30.7031746031746	35.1825396825397
H	1.34497354497355	30.573544973545	36.3846560846561
H	1.1047619047619	31.1026455026455	36.6767195767196
H	1.46560846560847	31.3529100529101	35.0042328042328
H	1.34761904761905	31.4269841269841	34.2089947089947
H	0.833333333333333	32.0259259259259	34.0502645502645
H	0.547619047619048	31.9825396825397	33.3100529100529
H	1.02698412698413	29.9449735449735	36.410582010582
H	0.393121693121693	29.8365079365079	36.8550264550265
H	0.0349206349206349	29.1354497354497	36.6873015873016
H	0.57037037037037	29.8878306878307	37.6529100529101
H	0.191534391534392	30.2444444444444	38.0455026455027
H	-0.377248677248677	29.1560846560847	36.0005291005291
H	-0.502116402116402	28.4179894179894	35.7301587301587
H	-1.07830687830688	29.5407407407407	36.1021164021164
H	1.12857142857143	29.5343915343915	37.8899470899471
H	1.31693121693122	29.5502645502646	38.6428571428571
H	1.92486772486772	29.0322751322751	38.8306878306878
H	1.46031746031746	30.3058201058201	38.8862433862434
H	1.15978835978836	30.5333333333333	39.4079365079365
H	2.18835978835979	29.137037037037	39.584126984127
H	1.66878306878307	28.2671957671958	38.7534391534392
H	1.87566137566138	30.7063492063492	38.4809523809524
H	1.9978835978836	31.4619047619048	38.6291005291005
H	2.55132275132275	31.7989417989418	38.1142857142857
H	1.33333333333333	31.9253968253968	38.6227513227513
H	1.28201058201058	32.4222222222222	39.0428571428571
H	3.3031746031746	31.5328042328042	38.2386243386243
H	3.78095238095238	31.6783068783069	37.8142857142857
H	3.41428571428571	31.1417989417989	38.8142857142857
H	0.837037037037037	31.7925925925926	38.1407407407407
H	0.169312169312169	32.1835978835979	38.1534391534392
H	-0.262433862433862	32.0391534391534	37.4904761904762
H	-0.28994708994709	32.0465608465608	38.8195767195767
H	-0.632804232804233	32.5338624338624	39.0978835978836
H	-0.280952380952381	31.3936507936508	39.0804232804233
H	-0.652380952380952	31.2195767195767	39.7407407407407
H	-0.675661375661376	30.4269841269841	39.8761904761905
H	-0.295238095238095	31.5973544973545	40.3656084656085
H	-0.642857142857143	31.937037037037	40.7984126984127
H	-1.08994708994709	30.0592592592593	39.2867724867725
H	-0.994179894179894	30.2693121693122	40.6126984126984
H	-0.924867724867725	29.2920634920635	39.2142857142857
H	0.404232804232804	31.5555555555556	40.3814814814815
H	0.828042328042328	31.8703703703704	40.9518518518519
H	1.61111111111111	31.6835978835979	40.8708994708995
H	0.737037037037037	32.6724867724868	40.9830687830688
H	0.686243386243386	32.9798941798942	41.5592592592593
H	1.74497354497355	30.9243386243386	41.041798941799
H	2.48941798941799	30.7005291005291	40.8936507936508
H	2.84497354497354	31.0164021164021	40.457671957672
H	2.72169312169312	30.142328042328	41.2386243386243
H	0.708465608465608	32.9962962962963	40.3619047619048
H	0.569312169312169	33.7470899470899	40.2857142857143
H	0.624867724867725	33.9518518518518	39.5047619047619
H	-0.154497354497354	33.9661375661376	40.5809523809524
H	-0.201058201058201	34.494708994709	40.9661375661376
H	0.57989417989418	34.7481481481482	39.3486772486772
H	-0.00105820105820106	34.9613756613757	38.8058201058201
H	-0.16031746031746	35.5936507936508	38.7248677248677
H	-0.313756613756614	34.4391534391534	38.4386243386243
H	-0.712169312169312	33.5687830687831	40.4132275132275
H	-1.42539682539683	33.6941798941799	40.7275132275132
H	-1.9994708994709	33.210582010582	40.3936507936508
H	-1.42592592592593	33.578835978836	41.5338624338624
H	-1.72804232804233	33.9989417989418	41.9301587301587
H	-2.06296296296296	33.2116402116402	39.5857142857143
H	-2.10687830687831	33.947619047619	39.3201058201058
H	-2.26560846560847	34.0021164021164	38.5428571428571
H	-2.34021164021164	34.784126984127	38.3798941798942
H	-1.0984126984127	33.0047619047619	41.7761904761905
H	-1.05026455026455	32.868253968254	42.5476190476191
H	-0.658201058201058	32.1783068783069	42.6989417989418
H	-0.681481481481482	33.4756613756614	42.9312169312169
H	-0.871957671957672	33.6534391534391	43.5216931216931
H	-1.02804232804233	31.4904761904762	42.4851851851852
H	-0.542328042328042	30.8772486772487	42.6116402116402
H	-1.7037037037037	31.3978835978836	42.8994708994709
H	-0.150793650793651	33.789417989418	42.589417989418
H	0.242857142857143	34.3777777777778	42.8904761904762
H	0.928571428571429	34.4931216931217	42.4846560846561
H	-0.18994708994709	35.0677248677249	42.8904761904762
H	-0.00529100529100529	35.5772486772487	43.2280423280423
H	0.790476190476191	34.9322751322751	41.8899470899471
H	-0.780952380952381	35.0873015873016	42.5285714285714
H	-1.24656084656085	35.7068783068783	42.5783068783069
H	-1.63862433862434	35.8148148148148	41.8814814814815
H	-1.76984126984127	35.6814814814815	43.2063492063492
H	-2.12433862433862	36.2037037037037	43.3566137566138
H	-1.17142857142857	36.1433862433862	41.3243386243386
H	-1.45925925925926	36.0349206349206	40.6021164021164
H	-0.960846560846561	36.3492063492064	40.0481481481482
H	-1.26031746031746	36.2502645502646	39.3179894179894
H	-1.81269841269841	35.0851851851852	43.5767195767196
H	-2.28994708994709	35.0275132275132	44.173544973545
H	-2.3968253968254	34.2544973544974	44.3957671957672
H	-2.04126984126984	35.4941798941799	44.7867724867725
H	-2.47936507936508	35.7873015873016	45.1698412698413
H	-2.77354497354497	33.7661375661376	43.8502645502645
H	-2.68359788359788	32.9783068783069	44.0243386243386
H	-3.54656084656085	33.9253968253968	43.768253968254
H	-1.34444444444444	35.5677248677249	44.8677248677249
H	-1.01640211640212	36.04708994709	45.3883597883598
H	-1.08994708994709	36.8275132275132	45.1539682539683
H	-1.3042328042328	35.9677248677249	46.1402116402116
H	-1.45502645502646	36.4941798941799	46.4835978835979
H	-0.813756613756614	37.0037037037037	44.4137566137566
H	-0.155026455026455	37.478835978836	44.4174603174603
H	0.523280423280423	37.0698412698413	44.6021164021164
H	1.19206349206349	37.3925925925926	44.2952380952381
H	-1.37037037037037	35.3137566137566	46.3962962962963
H	-1.5989417989418	35.1867724867725	47.1227513227513
H	-2.37830687830688	35.3365079365079	47.2650793650794
H	-2.60582010582011	35.3068783068783	47.8814814814815
H	-2.78465608465608	35.4899470899471	46.7031746031746
H	-3.53862433862434	35.6497354497355	46.7603174603175
H	-3.71746031746032	36.3566137566138	46.4010582010582
H	-3.94867724867725	35.068253968254	46.3862433862434
H	-3.66613756613757	34.7502645502646	45.8968253968254
H	-3.45291005291005	37.0089947089947	46.7878306878307
H	-3.83015873015873	37.1137566137566	47.4957671957672
H	-4.45238095238095	37.3497354497354	47.4925925925926
H	-3.50899470899471	36.9544973544974	48.0555555555556
H	-4.61851851851852	34.9412698412698	46.6005291005291
H	-5.05608465608466	34.4095238095238	46.2645502645503
H	-5.77142857142857	34.4915343915344	46.6349206349206
H	-5.15343915343915	34.5116402116402	45.4624338624339
H	-5.13597883597884	35.0994708994709	45.1846560846561
H	-5.62010582010582	34.8460317460317	47.3015873015873
H	-5.0037037037037	35.3089947089947	47.1693121693122
H	-5.26137566137566	33.9291005291005	45.0952380952381
H	-5.34021164021164	33.9502645502645	44.3338624338624
H	-5.30846560846561	33.2216931216931	44.0269841269841
H	-5.14497354497355	32.7126984126984	44.3899470899471
H	-5.46349206349206	33.1883597883598	43.3476190476191
H	-5.53968253968254	32.5269841269841	42.9619047619048
H	-6.3010582010582	32.4179894179894	42.7248677248677
H	-5.07142857142857	32.5338624338624	42.3153439153439
H	-5.06507936507937	33.0518518518519	41.9206349206349
H	-6.84867724867725	32.531746031746	43.2772486772487
H	-7.15925925925926	33.1619047619048	43.4650793650794
H	-7.16084656084656	32.0010582010582	43.7179894179894
H	-7.62804232804233	33.0555555555556	44.0121693121693
H	-7.64285714285714	32.3465608465608	44.1719576719577
H	-7.07248677248677	31.2677248677249	43.7804232804233
H	-8.05343915343915	31.9767195767196	44.6608465608466
H	-7.47513227513228	30.9026455026455	44.262962962963
H	-7.96084656084656	31.2550264550265	44.6978835978836
H	-4.67089947089947	31.9645502645503	42.2137566137566
H	-4.27671957671958	31.8603174603175	41.5566137566138
H	-3.47142857142857	31.8534391534392	41.6666666666667
H	-4.55873015873016	31.1703703703704	41.2417989417989
H	-4.57195767195767	30.6285714285714	41.5878306878307
H	-3.0957671957672	31.7349206349206	40.9619047619048
H	-3.22063492063492	32.5507936507937	42.0047619047619
H	-4.82116402116402	31.210582010582	40.5941798941799
H	-5.14973544973545	30.5994708994709	40.2582010582011
H	-5.92222222222222	30.7656084656085	40.0328042328042
H	-4.72169312169312	30.3433862433862	39.6164021164021
H	-4.5968253968254	30.7428571428571	39.1206349206349
H	-6.27037037037037	30.1010582010582	39.7068783068783
H	-6.33068783068783	31.0089947089947	40.6338624338624
H	-4.51957671957672	29.6698412698413	39.6375661375661
H	-4.1973544973545	29.3068783068783	39.0518518518519
H	-3.61640211640212	28.7925925925926	39.3068783068783
H	-4.77830687830688	28.8904761904762	38.6978835978836
H	-5.1042328042328	28.4169312169312	39.0291005291005
H	-3.02539682539683	29.2005291005291	39.6899470899471
H	-3.31481481481481	28.3566137566138	38.6973544973545
H	-2.51640211640212	28.7253968253968	40.1153439153439
H	-4.91269841269841	29.0529100529101	38.0259259259259
H	-5.4962962962963	28.6957671957672	37.6619047619048
H	-6.15661375661376	29.1687830687831	37.6216931216931
H	-5.28624338624339	28.3835978835979	36.9455026455026
H	-4.80846560846561	28.6502645502645	36.5867724867725
H	-6.13121693121693	29.7126984126984	37.0518518518519
H	-6.35026455026455	29.5783068783069	36.3698412698413
H	-5.90582010582011	30.3910052910053	37.0619047619048
H	-6.26031746031746	30.1539682539683	35.9830687830688
H	-5.9978835978836	30.6566137566138	36.3925925925926
H	-5.64444444444444	27.8063492063492	36.7597883597884
H	-5.5	27.4026455026455	36.1195767195767
H	-5.81375661375661	26.6645502645503	36.1587301587302
H	-6.1015873015873	26.437037037037	36.7
H	-5.74285714285714	26.2830687830688	35.5809523809524
H	-6.07195767195767	25.5994708994709	35.5068783068783
H	-6.01269841269841	25.3534391534392	34.7354497354497
H	-5.76507936507937	25.0439153439153	36.0174603174603
H	-5.16772486772487	25.1015873015873	36.2708994708995
H	-5.29259259259259	25.0476190476191	34.5560846560847
H	-5.22962962962963	24.6153439153439	33.7100529100529
H	-5.86719576719577	23.9169312169312	33.7931216931217
H	-6.19365079365079	24.5042328042328	36.1592592592593
H	-5.97883597883598	23.894708994709	36.5756613756614
H	-6.58465608465609	23.3603174603175	36.6031746031746
H	-5.31164021164021	23.5502645502646	36.268253968254
H	-5.25820105820106	23.421164021164	35.631746031746
H	-4.8026455026455	23.4058201058201	36.7280423280423
H	-4.13174603174603	23.0984126984127	36.5084656084656
H	-3.58359788359788	23.5724867724868	36.1550264550265
H	-3.03703703703704	23.3164021164021	35.9216931216931
H	-3.71005291005291	24.2597883597884	36.121164021164
H	-3.20634920634921	24.7248677248677	35.7645502645503
H	-3.56243386243386	25.3920634920635	35.4560846560847
H	-2.56560846560847	24.9253968253968	36.2132275132275
H	-2.09312169312169	25.2793650793651	35.9465608465608
H	-3.8026455026455	26.0783068783069	36.0740740740741
H	-2.55820105820106	24.6973544973545	36.8825396825397
H	-1.96243386243386	24.7719576719577	37.3603174603175
H	-2.02910052910053	25.3619047619048	37.9079365079365
H	-1.49470899470899	25.6349206349206	38.1444444444444
H	-2.67883597883598	25.5550264550265	38.1089947089947
H	-2.7989417989418	26.1518518518519	38.589417989418
H	-3.58095238095238	26.3486772486772	38.605291005291
H	-2.52486772486772	26.0148148148148	39.3486772486772
H	-2.20740740740741	26.4761904761905	39.689417989418
H	-3.9	26.5671957671958	37.8931216931217
H	-4.68412698412698	26.7661375661376	37.9772486772487
H	-5.13809523809524	26.1407407407407	38.2047619047619
H	-5.17883597883598	25.5888888888889	37.6539682539682
H	-2.63968253968254	25.3809523809524	39.610582010582
H	-2.44391534391534	25.2195767195767	40.3349206349206
H	-2.77513227513228	24.5312169312169	40.5783068783069
H	-1.64021164021164	25.1671957671958	40.3952380952381
H	-1.32169312169312	25.3978835978836	40.9153439153439
H	-2.27671957671958	24.0010582010582	40.4470899470899
H	-1.3037037037037	24.8587301587302	39.8650793650794
H	-0.528571428571429	24.8772486772487	39.8306878306878
H	-0.24021164021164	24.478835978836	39.1968253968254
H	-0.254497354497354	25.6375661375661	39.8095238095238
H	0.277777777777778	25.8010582010582	40.1497354497355
H	0.543386243386243	24.6068783068783	39.1190476190476
H	-0.380952380952381	23.6851851851852	39.284126984127
H	-0.613756613756614	26.0968253968254	39.4100529100529
H	-0.424338624338624	26.842328042328	39.3719576719577
H	-0.871957671957672	27.2349206349206	38.810582010582
H	-0.498412698412698	27.2232804232804	40.0820105820106
H	-0.0375661375661376	27.6301587301587	40.2888888888889
H	-0.693121693121693	27.189417989418	38.021164021164
H	-1.26349206349206	27.5338624338624	37.5740740740741
H	0.0253968253968254	27.5037037037037	37.8645502645503
H	-1.07989417989418	27.0984126984127	40.4492063492063
H	-1.21534391534392	27.4380952380952	41.1354497354497
H	-1.94550264550265	27.2529100529101	41.3936507936508
H	-0.668253968253968	27.242328042328	41.6941798941799
H	-0.436507936507936	27.6931216931217	42.110582010582
H	-0.469312169312169	26.5724867724868	41.7100529100529
H	0.0978835978835979	26.3126984126984	42.1751322751323
H	0.11957671957672	25.4925925925926	42.162962962963
H	0.820634920634921	26.6338624338624	41.9825396825397
H	1.2021164021164	26.868253968254	42.4449735449736
H	1.0026455026455	26.6798941798942	41.3026455026455
H	1.67195767195767	27.010582010582	41.0798941798942
H	1.8031746031746	26.9587301587302	40.2941798941799
H	1.72222222222222	27.7862433862434	41.2560846560847
H	2.28835978835979	28.0449735449735	41.4375661375661
H	2.06349206349206	26.2603174603175	40.0650793650794
H	2.6962962962963	26.0111111111111	40.5031746031746
H	3.27248677248677	26.3343915343915	40.4597883597884
H	2.6021164021164	25.4867724867725	40.8952380952381
H	1.13174603174603	28.1592592592593	41.1973544973545
H	1.11640211640212	28.9058201058201	41.3597883597884
H	0.391534391534392	29.2010582010582	41.1920634920635
H	1.34074074074074	29.0835978835979	42.1232804232804
H	1.68148148148148	29.6291005291005	42.2455026455027
H	1.16402116402116	28.6190476190476	42.6269841269841
H	1.36666666666667	28.7142857142857	43.3708994708995
H	0.774074074074074	28.4656084656085	43.9010582010582
H	2.06613756613757	28.3582010582011	43.5693121693122
H	2.32222222222222	28.4386243386243	44.1783068783069
H	0.131216931216931	28.9502645502646	43.8650793650794
H	0.561375661375661	27.7100529100529	43.7904761904762
H	2.37407407407407	27.9724867724868	43.0619047619048
H	3.03492063492063	27.5984126984127	43.1608465608466
H	3.05555555555556	26.9724867724868	42.6502645502646
H	3.64232804232804	28.121164021164	43.0417989417989
H	4.10687830687831	28.0089947089947	42.6179894179894
H	3.54814814814815	26.3825396825397	42.8656084656085
H	3.39100529100529	25.6873015873016	42.4846560846561
H	2.8968253968254	25.2486772486772	42.8952380952381
H	2.27989417989418	25.0074074074074	42.6645502645503
H	2.07195767195767	25.137037037037	42.0253968253968
H	1.87354497354497	24.6190476190476	43.078835978836
H	3.62169312169312	28.7042328042328	43.4328042328042
H	4.11481481481482	29.2925925925926	43.3465608465608
H	3.82010582010582	29.8507936507937	42.8375661375661
H	4.25555555555556	29.6671957671958	44.0534391534392
H	3.76984126984127	29.9280423280423	44.3904761904762
H	4.35767195767196	30.4280423280423	42.6820105820106
H	4.83756613756614	30.2798941798942	42.2624338624339
H	4.31640211640212	31.0137566137566	42.9899470899471
H	4.91904761904762	29.7153439153439	44.2640211640212
H	5.10952380952381	30.0121693121693	44.957671957672
H	5.91058201058201	29.952380952381	45.0783068783069
H	4.8994708994709	30.7952380952381	45.0624338624339
H	4.6010582010582	30.9989417989418	45.6026455026455
H	6.14074074074074	30.1619047619048	45.8084656084656
H	6.26878306878307	29.6714285714286	46.3354497354497 
