20
NLopt step 120 (vacuum)
O 1.32735509 1.11566436 2.63577958
O 0.39541608 -0.73714604 3.44270407
N -0.96562259 -0.07526082 -3.21194964
N -0.59981976 1.42093477 -1.64223098
N -0.09973871 -1.71190504 1.02698824
C -0.12163398 -0.60054131 -2.28449210
C 0.12908644 0.31152205 -1.29506324
C -1.23295871 1.13164409 -2.80587353
C 0.91674877 0.23598884 -0.03794188
C 0.05207262 -0.27753632 1.13085498
C 0.68429362 0.11551563 2.45910369
H 0.26251209 -1.59503841 -2.39063525
H -0.62712487 2.28740743 -1.12976574
H -1.87264510 1.82411153 -3.31510164
H 1.31005565 1.21924757 0.22718664
H 1.74875626 -0.45681112 -0.16414242
H -0.91546653 0.27159112 1.11811157
H -0.63179093 -2.08314784 1.80465276
H -0.57072366 -1.94793923 0.16078441
H 0.81123020 -0.44830226 4.27102948
