7
Coordinates from ORCA-job orca E -988.446293286968
  S           0.00000000001683      0.00000000003560      0.00000000004486
  F          -0.00000000016410      0.00000000000429      1.51571454155887
  F          -0.00000000009063      1.51571454156838     -0.00000000010056
  F           0.00000000020013      0.00000000001506     -1.51571454149897
  F          -1.51571454042014     -0.00000000001121      0.00000000022491
  F           1.51571454046364     -0.00000000009612     -0.00000000013932
  F          -0.00000000000572     -1.51571454151600     -0.00000000008979

