118
 energy: -165.841640830429 gnorm: 0.000463965502 xtb: 6.7.1 (99b3583)
C           -0.31371910328636       -0.21298961974060        4.40524342784151
C            0.45166070894634       -1.50021672551977        4.68266667042327
C           -0.39147607457670       -2.75134307965882        4.44279428539420
H           -1.37667471212659       -2.61370286339326        4.89635112569947
H            0.09138415593326       -3.60429047345779        4.92426834174839
C           -0.57098317270321       -3.06371576402694        2.95044476517049
N           -1.65852306217231       -3.97503344152580        2.68497162913521
C           -2.93983569352803       -3.51794916589486        2.72296058109431
C           -4.11539769311654       -4.23789063319441        2.70212257659527
C           -5.25836020311842       -3.43551666782617        2.68986782879938
C           -5.00655582878145       -2.06948690546913        2.69162332564258
C           -5.96665401164489       -1.05668349696902        2.70232017954164
C           -5.78478896406853        0.31797915460131        2.59942702333286
C           -6.73122811501682        1.35912956696952        2.67112998988257
N           -6.25686220469601        2.58912603866298        2.45652061550983
C           -4.97427388157368        2.62984970724108        2.21051746656572
C           -4.24387410446342        3.79026528840404        1.90909511507131
C           -2.91498219726819        3.74271235847949        1.51395795403133
N           -1.81345331516496        3.73494221978227        1.16178140690575
C           -4.83647527370309        5.04688996032040        1.95144255321119
N           -5.28590874802125        6.11187984408821        1.98465206335674
S           -4.20154165444388        1.02485012271461        2.26803466364797
S           -3.26863482882182       -1.79802497102572        2.71376689219871
C           -8.21008411528271        1.22874238155093        2.96396795064009
C           -8.82471059007699        2.63088041520745        3.04261482522763
H           -8.34378497972539        3.20938732396347        3.82611637742758
H           -8.67646199233366        3.16016867213938        2.10612346682708
H           -9.89255156665023        2.56254158636826        3.25219422932392
C           -8.43877139820739        0.53220112784035        4.31226727961747
H           -7.95337260201432        1.09728702330496        5.10543660126887
H           -8.03092684762558       -0.47384026349739        4.31869958436543
H           -9.50585784742680        0.47625203245857        4.52920893635668
C           -8.91466237009818        0.46277137800757        1.83511619686919
H           -8.52569855131639       -0.54583051498406        1.73166067440250
H           -9.98539608260404        0.40276358644876        2.03199697686261
H           -8.76405430988245        0.98090511703914        0.89025430298071
H           -6.98256013469001       -1.42023315117434        2.78160367280951
H           -6.26108373041024       -3.83152378210462        2.67760383485387
H           -4.15960871019525       -5.31282143158573        2.69591403514311
C           -1.40052620046959       -5.39507855434859        2.68546843894078
H           -2.06145149549577       -5.85858007442262        1.94681116558121
C           -1.59023564180380       -6.06859836301249        4.05177690612955
C           -1.12177213784607       -7.52243180198414        4.03788146094502
C           -2.01624949952923       -8.43187134358797        3.20286598324514
H           -3.04993707736127       -8.36935377528704        3.54177846281652
H           -1.97892304086573       -8.15125944052642        2.15405453617394
H           -1.68986940209259       -9.46712603089722        3.28750027719460
H           -1.10054183763079       -7.89638907758947        5.06581902588288
H           -0.10326859080355       -7.55310474190438        3.64789674764940
H           -0.99971736148374       -5.52267057425943        4.78785037482144
H           -2.63777212775875       -6.01213352367797        4.35874132741636
H           -0.36467711466619       -5.54586582183774        2.37335918420604
H           -0.77141681148773       -2.13570270733403        2.40673324487730
H            0.34824663975452       -3.50240298894562        2.55619973344692
H            1.34476073475753       -1.54452105570546        4.05766146867017
H            0.78291006830073       -1.49452487744340        5.72529242349959
H            0.32103425672532        0.64943027226764        4.59200656245673
H           -0.65165465633178       -0.16579507436763        3.37442521036577
H           -1.19079436585517       -0.14248397173865        5.04574261298531
C           -1.42362574166969        5.09051536137185        4.42080112407355
C           -0.74996739854580        3.72723501104325        4.51605458346009
C            0.73966243358947        3.77644535509198        4.18343586408628
H            1.17548280803305        2.79193858347869        4.37017914624217
H            1.23823973012018        4.48968553110905        4.84587670990431
C            1.00591502304055        4.13792136997900        2.71613226853721
N            2.36198659789072        3.85048371813602        2.28540521193781
C            2.79130840727332        2.54677538151823        2.31632597005809
C            2.05225920396058        1.40282412472088        2.14699407026507
C            2.79850611939622        0.22135420792512        2.22192355822665
C            4.14850663922696        0.40660930757974        2.46461056654706
C            5.23280181229938       -0.45831600906262        2.62473745363113
C            5.24155100267613       -1.84918939732473        2.66744637082900
C            6.33210850840818       -2.72459349482840        2.83362757799956
N            6.03310439286172       -4.02756226671673        2.85748676541433
C            4.76275957719830       -4.28829093021996        2.72053501790282
C            4.19880131716195       -5.57579491618343        2.71029201303622
C            2.84057208795859       -5.79248570291992        2.55527356907210
N            1.71130576144186       -6.00961625473936        2.42304878338802
C            4.99494684048967       -6.70665012373813        2.85409152341915
N            5.61767750222085       -7.67413970414035        2.96953099950330
S            3.77065013665533       -2.81845473631030        2.53864481283276
S            4.47594604623676        2.14435185565747        2.59113690961023
C            7.79102184384733       -2.35195184775821        2.98716564604083
C            8.61756911528913       -3.63726453444037        3.11373590325321
H            9.67458370980712       -3.39460241500598        3.22635557197356
H            8.28971201912910       -4.21348545777463        3.97400105996842
H            8.48606575468635       -4.25907590573595        2.23292933912775
C            8.00725995090857       -1.52314286429939        4.26134625388985
H            7.45914511865612       -0.58656240140252        4.23122743557552
H            9.06687495373169       -1.29966431547162        4.38762256293054
H            7.66617960835194       -2.08589869527739        5.12808820146772
C            8.29024681427957       -1.58689590308056        1.75362591529620
H            7.75165856223835       -0.65508804542860        1.61221780053868
H            9.35179585299142       -1.36098614286101        1.85750838939845
H            8.15143284248867       -2.19554638727034        0.86220905628884
H            6.18413938576531        0.03652295672312        2.75615995661618
H            2.36548013356286       -0.75005021162747        2.07334962922857
H            0.99608158792592        1.41701215443614        1.94953717583232
C            3.33172185894051        4.91203307298109        2.32090939168390
H            4.19534827215763        4.59134184025448        1.72933594141231
C            3.81728870358360        5.29466099957197        3.72882034030475
C            5.09469670836111        6.13087179004015        3.70267782921073
C            4.90181779948743        7.49391410061962        3.04689482941180
H            4.65196712981882        7.38447023307229        1.99502856797459
H            4.09793209527907        8.04085858915364        3.53594639261690
H            5.81332093534221        8.08502409871359        3.12064070933917
H            5.87022391680239        5.57605296166928        3.17024377883553
H            5.43950779062082        6.27721360343573        4.73006167879365
H            3.03186478010418        5.84533477926934        4.25042901864321
H            4.01352399626772        4.37404111943616        4.28106591317633
H            2.88439102989299        5.78382289151048        1.83246220668535
H            0.30334206166189        3.58982411816347        2.08224072256551
H            0.83268626519393        5.20214315850209        2.54960477005180
H           -0.86942403680878        3.33516191105727        5.53028934683312
H           -1.24541650110804        3.03761534338584        3.83195377403970
H           -1.42209371331795        5.44266278817786        3.39336349088464
H           -2.45939212773807        5.02367101599375        4.74641345955633
H           -0.91132355786093        5.82177690274454        5.04624249778534
